p cnf 16 36
1 13 0
-1 -2 14 0
3 15 0
 4 16 0
-5 -3 6 0
 -5 -7 0
-6 7 8 0
-4 -8 -9 0
-1 9 -10 0
9 11 -14 0
10 -11 12 0
-2 -11 -12 0
-13 -14 -15 0
-10 -13 -16 0
-10 -6 -2 0
-3 -6 -12 0
-14 15 16 0
-1 -2 -3 0
-10 -11 -16 0
-6 -7 -8 0
-1 -13 -3 0
-13 -15 -16 0
-4 -5 -15 0
8 -12 -16 0
3 -14 -6 0
-14 -7 -10 0
-4 -14 -12 0
-1 -16 -7 0
-9 8 11 0
-9 8 16 0
4 7 -16 0
10 11 12 0
5 6 13 0
9 10 -12 0
-10 -13 16 0
4 -16 -7 0